NAME : A-n32-k5.784.tour
COMMENT : Cost = 0_784
COMMENT : Found by LKH [Keld Helsgaun] Thu Nov  2 15:32:12 2017
TYPE : TOUR
DIMENSION : 36
TOUR_SECTION
1
15
29
12
5
24
3
4
7
36
31
17
2
13
33
30
19
9
10
23
16
11
26
6
21
34
25
28
35
22
32
20
18
14
8
27
-1
EOF
